
50
12768

415 415
288 288
845 845
444 444
529 529
552 552
339 339
640 640
901 901
72 72
561 561
265 265
656 656
624 624
46 46
113 113
529 529
859 859
798 798
824 824
138 138
351 351
577 577
367 367
231 231
923 923
636 636
399 399
477 477
700 700
760 760
780 780
335 335
968 968
764 764
271 271
172 172
431 431
261 261
878 878
10 10
818 818
162 162
812 812
433 433
132 132
986 986
419 419
979 979
323 323
